benchmark/results/graph__10-1000-0.10-03_1/graph__10-1000-0.10-03_1_Quinton_Benders_aux.lp
\ This file has been generated by DOcplex
\ ENCODING=ISO-8859-1
\Problem name: Quinton Benders_auxiliary_sub

Minimize
 obj: 0.001200851319 pi_nr_a0 + 0.001649280779 pi_nr_a1
      + 0.000954312994 pi_nr_a2 + 0.001600496061 pi_nr_a3
      + 0.002270014298 pi_nr_a4 + 0.001398601399 pi_nr_a5
      + 0.001048736484 pi_nr_a6 + 0.001321572870 pi_nr_a7
      + 0.000964058827 pi_nr_a8 + 0.000977459140 pi_nr_a9 + pi_p_a1_a3
      + pi_p_a4_a4 + pi_p_a1_a6 + pi_p_a0_a6 + pi_p_a4_a5 + pi_p_a0_a9
      + 2600.498154135874 pi_d_a0_a1_proc_2
      + 2880.498156520203 pi_d_a0_a1_proc_1
      + 2640.498151751545 pi_d_a0_a1_proc_0 + 600.501845864126 pi_d_a1_a0_proc_2
      + 880.501848248455 pi_d_a1_a0_proc_1 + 640.501843479797 pi_d_a1_a0_proc_0
      + 2563.387730181218 pi_d_a0_a2_proc_2
      + 2840.999998773119 pi_d_a0_a2_proc_1
      + 3558.612262052559 pi_d_a0_a2_proc_0 + 2.387736176620 pi_d_a2_a0_proc_2
      + 280.000004768522 pi_d_a2_a0_proc_1 + 997.612268047962 pi_d_a2_a0_proc_0
      + 1921.425798895303 pi_d_a0_a3_proc_2
      + 2761.113291742316 pi_d_a0_a3_proc_0 + 479.886705873355 pi_d_a3_a0_proc_2
      + 1319.574198720368 pi_d_a3_a0_proc_0
      + 2119.962845564126 pi_d_a0_a4_proc_2
      + 1199.806525230779 pi_d_a0_a4_proc_1
      + 2519.650303244681 pi_d_a0_a4_proc_0
      + 1641.349729537735 pi_d_a4_a0_proc_2 + 721.193409204389 pi_d_a4_a0_proc_1
      + 2041.037187218290 pi_d_a4_a0_proc_0
      + 1199.999999019590 pi_d_a0_a5_proc_1 + 1.000005749068 pi_d_a5_a0_proc_1
      + 2721.000002682211 pi_d_a0_a6_proc_2
      + 1326.219656194095 pi_d_a0_a6_proc_1
      + 2883.609825414413 pi_d_a0_a6_proc_0
      + 1514.780346488399 pi_d_a6_a0_proc_2 + 120.000000000282 pi_d_a6_a0_proc_1
      + 1677.390169220600 pi_d_a6_a0_proc_0 + 1.812501907349 pi_d_a0_a7_proc_2
      + 281.812504291678 pi_d_a0_a7_proc_1 + 1001.812499523020 pi_d_a0_a7_proc_0
      + 2559.187498092651 pi_d_a7_a0_proc_2
      + 2839.187500476980 pi_d_a7_a0_proc_1
      + 3559.187495708322 pi_d_a7_a0_proc_0
      + 1279.685429719729 pi_d_a0_a8_proc_1
      + 2879.998000087852 pi_d_a0_a8_proc_0 + 1.001999912148 pi_d_a8_a0_proc_1
      + 1601.314570280271 pi_d_a8_a0_proc_0
      + 2001.000000000005 pi_d_a0_a9_proc_2
      + 2761.000002384324 pi_d_a0_a9_proc_1 + 80.000000000005 pi_d_a9_a0_proc_2
      + 840.000002384324 pi_d_a9_a0_proc_1 + 965.775466340258 pi_d_a1_a2_proc_2
      + 2243.387732547831 pi_d_a1_a2_proc_1
      + 1921.000000595929 pi_d_a1_a2_proc_0 + 960.000000017580 pi_d_a2_a1_proc_2
      + 2237.612266225152 pi_d_a2_a1_proc_1
      + 1915.224534273250 pi_d_a2_a1_proc_0 + 1281 pi_d_a1_a3_proc_2
      + 2080.687495231342 pi_d_a1_a3_proc_0 + 480.312504768658 pi_d_a3_a1_proc_2
      + 1280 pi_d_a3_a1_proc_0 + 840.094646334886 pi_d_a1_a4_proc_2
      + 919.938323617210 pi_d_a1_a4_proc_1 + 1199.782106399769 pi_d_a1_a4_proc_0
      + 2281.217928766976 pi_d_a4_a1_proc_2
      + 2361.061606049300 pi_d_a4_a1_proc_1
      + 2640.905388831859 pi_d_a4_a1_proc_0 + 559.998000117943 pi_d_a1_a5_proc_1
      + 2001.001999882057 pi_d_a5_a1_proc_1
      + 3078.390174287141 pi_d_a1_a6_proc_2
      + 2683.609825414695 pi_d_a1_a6_proc_1
      + 3200.999999403672 pi_d_a1_a6_proc_0 + 517.390174883469 pi_d_a6_a1_proc_2
      + 122.609826011023 pi_d_a6_a1_proc_1 + 640 pi_d_a6_a1_proc_0
      + 1601 pi_d_a1_a7_proc_2 + 2881 pi_d_a1_a7_proc_1 + 2561 pi_d_a1_a7_proc_0
      + 320 pi_d_a7_a1_proc_2 + 1600 pi_d_a7_a1_proc_1 + 1280 pi_d_a7_a1_proc_0
      + 2559.435499670436 pi_d_a1_a8_proc_1
      + 3119.748074807218 pi_d_a1_a8_proc_0 + 81.251925192782 pi_d_a8_a1_proc_1
      + 641.564500329564 pi_d_a8_a1_proc_0 + 1361.000000000005 pi_d_a1_a9_proc_2
      + 3120.999999999995 pi_d_a1_a9_proc_1 + 80.000000000005 pi_d_a9_a1_proc_2
      + 1839.999999999995 pi_d_a9_a1_proc_1
      + 1125.775466358111 pi_d_a2_a3_proc_2
      + 2880.687495845124 pi_d_a2_a3_proc_0 + 0.312504768385 pi_d_a3_a2_proc_2
      + 1755.224534255398 pi_d_a3_a2_proc_0
      + 2483.806750928523 pi_d_a2_a4_proc_2
      + 2561.262694418419 pi_d_a2_a4_proc_1
      + 3798.718745249077 pi_d_a2_a4_proc_0 + 2.281290531177 pi_d_a4_a2_proc_2
      + 79.737234021073 pi_d_a4_a2_proc_1 + 1317.193284851731 pi_d_a4_a2_proc_0
      + 559.997999551117 pi_d_a2_a5_proc_1 + 1361.001999221866 pi_d_a5_a2_proc_1
      + 2317.535268937993 pi_d_a2_a6_proc_2
      + 1920.367186273119 pi_d_a2_a6_proc_1
      + 3395.369628310194 pi_d_a2_a6_proc_0 + 643.020546590455 pi_d_a6_a2_proc_2
      + 245.852463925581 pi_d_a6_a2_proc_1 + 1720.854905962657 pi_d_a6_a2_proc_0
      + 645.775466357838 pi_d_a2_a7_proc_2 + 1923.387732565410 pi_d_a2_a7_proc_1
      + 2561.000000613509 pi_d_a2_a7_proc_0 + 640 pi_d_a7_a2_proc_2
      + 1917.612266207572 pi_d_a7_a2_proc_1
      + 2555.224534255671 pi_d_a7_a2_proc_0
      + 1887.109093675427 pi_d_a2_a8_proc_1
      + 3405.033936860307 pi_d_a2_a8_proc_0 + 113.578329960774 pi_d_a8_a2_proc_1
      + 1631.503173145654 pi_d_a8_a2_proc_0 + 805.775466357377 pi_d_a2_a9_proc_2
      + 2563.387732564940 pi_d_a2_a9_proc_1 + 0.000000000470 pi_d_a9_a2_proc_2
      + 1757.612266208033 pi_d_a9_a2_proc_1
      + 2079.032179595495 pi_d_a3_a4_proc_2
      + 3238.407134891720 pi_d_a3_a4_proc_0 + 242.592900275024 pi_d_a4_a3_proc_2
      + 1401.967855571250 pi_d_a4_a3_proc_0
      + 2634.936601554798 pi_d_a3_a6_proc_2
      + 3557.233921902671 pi_d_a3_a6_proc_0 + 161.156252384470 pi_d_a6_a3_proc_2
      + 1083.453572732343 pi_d_a6_a3_proc_0
      + 1120.312504768658 pi_d_a3_a7_proc_2 + 2880 pi_d_a3_a7_proc_0
      + pi_d_a7_a3_proc_2 + 1760.687495231342 pi_d_a7_a3_proc_0
      + 4558.998070170226 pi_d_a3_a8_proc_0 + 2.002000197897 pi_d_a8_a3_proc_0
      + 0.312504768667 pi_d_a3_a9_proc_2 + 641 pi_d_a9_a3_proc_2
      + 720.999929666510 pi_d_a4_a5_proc_1 + 1602.131017895637 pi_d_a4_a6_proc_2
      + 7.194346305516 pi_d_a4_a6_proc_1 + 2084.428303077052 pi_d_a4_a6_proc_0
      + 2553.961906376834 pi_d_a6_a4_proc_2 + 959.025234786713 pi_d_a6_a4_proc_1
      + 3036.259191558248 pi_d_a6_a4_proc_0
      + 1922.334175795558 pi_d_a4_a7_proc_2
      + 2002.177853077882 pi_d_a4_a7_proc_1
      + 3242.021635860442 pi_d_a4_a7_proc_0 + 558.978399306303 pi_d_a7_a4_proc_2
      + 638.822076588628 pi_d_a7_a4_proc_1 + 1878.665859371187 pi_d_a7_a4_proc_0
      + 760.843642098124 pi_d_a4_a8_proc_1 + 2881.000000017465 pi_d_a4_a8_proc_0
      + 39.843712431605 pi_d_a8_a4_proc_1 + 2160.000070350945 pi_d_a8_a4_proc_0
      + 162.005967728816 pi_d_a4_a9_proc_2 + 721.849645011132 pi_d_a4_a9_proc_1
      + 1839.306607373054 pi_d_a9_a4_proc_2
      + 2399.150284655369 pi_d_a9_a4_proc_1 + 6.742293561090 pi_d_a5_a6_proc_1
      + 239.477357864628 pi_d_a6_a5_proc_1 + 1921.780396461254 pi_d_a5_a7_proc_1
      - 0.780396461254 pi_d_a7_a5_proc_1 + 79.687424863218 pi_d_a5_a8_proc_1
      + pi_d_a8_a5_proc_1 + 2401.006889341055 pi_d_a5_a9_proc_1
      - 0.006889341064 pi_d_a9_a5_proc_1 + 641.000000000000 pi_d_a6_a7_proc_2
      + 246.219651127554 pi_d_a6_a7_proc_1 + 1723.609825116531 pi_d_a6_a7_proc_0
      + 2314.780349170610 pi_d_a7_a6_proc_2
      + 1920.000000298164 pi_d_a7_a6_proc_1
      + 3397.390174287141 pi_d_a7_a6_proc_0 + 321.119570828601 pi_d_a6_a8_proc_1
      + 2678.822319954359 pi_d_a6_a8_proc_0 + 4.787505460336 pi_d_a8_a6_proc_1
      + 2362.490254586094 pi_d_a8_a6_proc_0 + 0.984000771784 pi_d_a6_a9_proc_2
      + 86.203651899329 pi_d_a6_a9_proc_1 + 2474.796348398835 pi_d_a9_a6_proc_2
      + 2560.015999526380 pi_d_a9_a6_proc_1
      + 1879.161909684756 pi_d_a7_a8_proc_1
      + 3399.474484821537 pi_d_a7_a8_proc_0 + 121.525515178463 pi_d_a8_a7_proc_1
      + 1641.838090315244 pi_d_a8_a7_proc_0 + 800.000000000009 pi_d_a7_a9_proc_2
      + 2560 pi_d_a7_a9_proc_1 + pi_d_a9_a7_proc_2
      + 1760.999999999991 pi_d_a9_a7_proc_1 + 1.790298491393 pi_d_a8_a9_proc_1
      + 2478.897126371817 pi_d_a9_a8_proc_1 + 0.218750001863 pi_y2_a0_proc_0
      + 0.531249998137 pi_y2_a0_proc_1 + 0.250000000000 pi_y2_a0_proc_2
      + 0.500000000000 pi_y2_a1_proc_0 + 0.000000000000 pi_y2_a1_proc_1
      + 0.500000000000 pi_y2_a1_proc_2 + 0.001865416067 pi_y2_a2_proc_0
      + 0.250000000479 pi_y2_a2_proc_1 + 0.748134583454 pi_y2_a2_proc_2
      + 0.187622072175 pi_y2_a3_proc_0 + 0.812377927825 pi_y2_a3_proc_2
      + 0.000122072175 pi_y2_a4_proc_0 + 0.718750027474 pi_y2_a4_proc_1
      + 0.281127900351 pi_y2_a4_proc_2 + pi_y2_a5_proc_1
      + 0.000000000233 pi_y2_a6_proc_0 + 0.904211073662 pi_y2_a6_proc_1
      + 0.095788926105 pi_y2_a6_proc_2 + 0.250000000000 pi_y2_a7_proc_1
      + 0.750000000000 pi_y2_a7_proc_2 + 0.031127900337 pi_y2_a8_proc_0
      + 0.968872099663 pi_y2_a8_proc_1 + 0.062500000000 pi_y2_a9_proc_1
      + 0.937500000000 pi_y2_a9_proc_2
Subject To
 c1: 0.001203369434 pi_nr_a0 + 0.001483679525 pi_nr_a1 + 0.000999000999 pi_nr_a2
     + 0.001652892562 pi_nr_a3 + 0.002840909091 pi_nr_a4
     + 0.001398601399 pi_nr_a5 + 0.001070663812 pi_nr_a6
     + 0.001342281879 pi_nr_a7 + 0.000969932105 pi_nr_a8
     + 0.000979431929 pi_nr_a9 + pi_p_a1_a3 + pi_p_a4_a4 + pi_p_a1_a6
     + pi_p_a0_a6 + pi_p_a4_a5 + pi_p_a0_a9 + 2560 pi_d_a0_a1_proc_2
     + 2560 pi_d_a0_a1_proc_1 + 3840 pi_d_a0_a1_proc_0 + pi_d_a1_a0_proc_2
     + pi_d_a1_a0_proc_1 + 1281 pi_d_a1_a0_proc_0 + 2561 pi_d_a0_a2_proc_2
     + 2561 pi_d_a0_a2_proc_1 + 3841 pi_d_a0_a2_proc_0 + 1280 pi_d_a2_a0_proc_0
     + 2561 pi_d_a0_a3_proc_2 + 3841 pi_d_a0_a3_proc_0 + 1280 pi_d_a3_a0_proc_0
     + 2560 pi_d_a0_a4_proc_2 + 2560 pi_d_a0_a4_proc_0 + 2561 pi_d_a4_a0_proc_2
     + pi_d_a4_a0_proc_1 + 2561 pi_d_a4_a0_proc_0 + pi_d_a5_a0_proc_1
     + 2561 pi_d_a0_a6_proc_2 + pi_d_a0_a6_proc_1 + 2561 pi_d_a0_a6_proc_0
     + 2560 pi_d_a6_a0_proc_2 + 2560 pi_d_a6_a0_proc_0 + 2 pi_d_a0_a7_proc_2
     + 2 pi_d_a0_a7_proc_1 + 1282 pi_d_a0_a7_proc_0 + 2559 pi_d_a7_a0_proc_2
     + 2559 pi_d_a7_a0_proc_1 + 3839 pi_d_a7_a0_proc_0 + 2560 pi_d_a0_a8_proc_0
     + pi_d_a8_a0_proc_1 + 2561 pi_d_a8_a0_proc_0 + 2561 pi_d_a0_a9_proc_2
     + 2561 pi_d_a0_a9_proc_1 + pi_d_a1_a2_proc_2 + 2561 pi_d_a1_a2_proc_1
     + 2561 pi_d_a1_a2_proc_0 + 2560 pi_d_a2_a1_proc_1 + 2560 pi_d_a2_a1_proc_0
     + pi_d_a1_a3_proc_2 + 2561 pi_d_a1_a3_proc_0 + 2560 pi_d_a3_a1_proc_0
     + 1280 pi_d_a1_a4_proc_0 + 2561 pi_d_a4_a1_proc_2 + 2561 pi_d_a4_a1_proc_1
     + 3841 pi_d_a4_a1_proc_0 + 2561 pi_d_a5_a1_proc_1 + 2561 pi_d_a1_a6_proc_2
     + 2561 pi_d_a1_a6_proc_1 + 3841 pi_d_a1_a6_proc_0 + 1280 pi_d_a6_a1_proc_0
     + pi_d_a1_a7_proc_2 + 2561 pi_d_a1_a7_proc_1 + 2561 pi_d_a1_a7_proc_0
     + 2560 pi_d_a7_a1_proc_1 + 2560 pi_d_a7_a1_proc_0 + 2559 pi_d_a1_a8_proc_1
     + 3839 pi_d_a1_a8_proc_0 + 2 pi_d_a8_a1_proc_1 + 1282 pi_d_a8_a1_proc_0
     + pi_d_a1_a9_proc_2 + 2561 pi_d_a1_a9_proc_1 + 2560 pi_d_a9_a1_proc_1
     + pi_d_a2_a3_proc_2 + 2561 pi_d_a2_a3_proc_0 + 2560 pi_d_a3_a2_proc_0
     + 2559 pi_d_a2_a4_proc_2 + 2559 pi_d_a2_a4_proc_1 + 3839 pi_d_a2_a4_proc_0
     + 2 pi_d_a4_a2_proc_2 + 2 pi_d_a4_a2_proc_1 + 1282 pi_d_a4_a2_proc_0
     + 2561 pi_d_a5_a2_proc_1 + 2560 pi_d_a2_a6_proc_2 + 2560 pi_d_a2_a6_proc_1
     + 3840 pi_d_a2_a6_proc_0 + pi_d_a6_a2_proc_2 + pi_d_a6_a2_proc_1
     + 1281 pi_d_a6_a2_proc_0 + pi_d_a2_a7_proc_2 + 2561 pi_d_a2_a7_proc_1
     + 2561 pi_d_a2_a7_proc_0 + 2560 pi_d_a7_a2_proc_1 + 2560 pi_d_a7_a2_proc_0
     + 2559 pi_d_a2_a8_proc_1 + 3839 pi_d_a2_a8_proc_0 + 2 pi_d_a8_a2_proc_1
     + 1282 pi_d_a8_a2_proc_0 + pi_d_a2_a9_proc_2 + 2561 pi_d_a2_a9_proc_1
     + 2560 pi_d_a9_a2_proc_1 + 2559 pi_d_a3_a4_proc_2 + 3839 pi_d_a3_a4_proc_0
     + 2 pi_d_a4_a3_proc_2 + 1282 pi_d_a4_a3_proc_0 + 2560 pi_d_a3_a6_proc_2
     + 3840 pi_d_a3_a6_proc_0 + pi_d_a6_a3_proc_2 + 1281 pi_d_a6_a3_proc_0
     + 2560 pi_d_a3_a7_proc_0 + pi_d_a7_a3_proc_2 + 2561 pi_d_a7_a3_proc_0
     + 5119 pi_d_a3_a8_proc_0 + 2 pi_d_a8_a3_proc_0 + pi_d_a9_a3_proc_2
     + pi_d_a4_a5_proc_1 + 2562 pi_d_a4_a6_proc_2 + 2 pi_d_a4_a6_proc_1
     + 2562 pi_d_a4_a6_proc_0 + 2559 pi_d_a6_a4_proc_2 - pi_d_a6_a4_proc_1
     + 2559 pi_d_a6_a4_proc_0 + 2562 pi_d_a4_a7_proc_2 + 2562 pi_d_a4_a7_proc_1
     + 3842 pi_d_a4_a7_proc_0 - pi_d_a7_a4_proc_2 - pi_d_a7_a4_proc_1
     + 1279 pi_d_a7_a4_proc_0 + pi_d_a4_a8_proc_1 + 2561 pi_d_a4_a8_proc_0
     + 2560 pi_d_a8_a4_proc_0 + 2 pi_d_a4_a9_proc_2 + 2 pi_d_a4_a9_proc_1
     + 2559 pi_d_a9_a4_proc_2 + 2559 pi_d_a9_a4_proc_1 + 2 pi_d_a5_a6_proc_1
     - pi_d_a6_a5_proc_1 + 2562 pi_d_a5_a7_proc_1 - pi_d_a7_a5_proc_1
     + pi_d_a8_a5_proc_1 + 2561 pi_d_a5_a9_proc_1 + pi_d_a6_a7_proc_2
     + pi_d_a6_a7_proc_1 + 1281 pi_d_a6_a7_proc_0 + 2560 pi_d_a7_a6_proc_2
     + 2560 pi_d_a7_a6_proc_1 + 3840 pi_d_a7_a6_proc_0 - pi_d_a6_a8_proc_1
     + 2559 pi_d_a6_a8_proc_0 + 2 pi_d_a8_a6_proc_1 + 2562 pi_d_a8_a6_proc_0
     + pi_d_a6_a9_proc_2 + pi_d_a6_a9_proc_1 + 2560 pi_d_a9_a6_proc_2
     + 2560 pi_d_a9_a6_proc_1 + 2559 pi_d_a7_a8_proc_1 + 3839 pi_d_a7_a8_proc_0
     + 2 pi_d_a8_a7_proc_1 + 1282 pi_d_a8_a7_proc_0 + 2560 pi_d_a7_a9_proc_1
     + pi_d_a9_a7_proc_2 + 2561 pi_d_a9_a7_proc_1 + 2 pi_d_a8_a9_proc_1
     + 2559 pi_d_a9_a8_proc_1 + pi_y2_a0_proc_1 + pi_y2_a1_proc_2
     + pi_y2_a2_proc_2 + pi_y2_a3_proc_2 + pi_y2_a4_proc_1 + pi_y2_a5_proc_1
     + pi_y2_a6_proc_1 + pi_y2_a7_proc_2 + pi_y2_a8_proc_1 + pi_y2_a9_proc_2 = 
     0.000247157687
 c2: pi_nr_a0 + pi_nr_a1 + pi_nr_a2 + pi_nr_a3 + pi_nr_a4 + pi_nr_a5 + pi_nr_a6
     + pi_nr_a7 + pi_nr_a8 + pi_nr_a9 - pi_y1_a0 - pi_y1_a1 - pi_y1_a2
     - pi_y1_a3 - pi_y1_a4 - pi_y1_a5 - pi_y1_a6 - pi_y1_a7 - pi_y1_a8
     - pi_y1_a9 >= 1
 c3: - pi_p_a1_a0 + pi_p_a0_a5 + pi_p_a0_a6 + pi_p_a0_a9 + pi_d_a0_a1_proc_2
     + pi_d_a0_a1_proc_1 + pi_d_a0_a1_proc_0 - pi_d_a1_a0_proc_2
     - pi_d_a1_a0_proc_1 - pi_d_a1_a0_proc_0 + pi_d_a0_a2_proc_2
     + pi_d_a0_a2_proc_1 + pi_d_a0_a2_proc_0 - pi_d_a2_a0_proc_2
     - pi_d_a2_a0_proc_1 - pi_d_a2_a0_proc_0 + pi_d_a0_a3_proc_2
     + pi_d_a0_a3_proc_0 - pi_d_a3_a0_proc_2 - pi_d_a3_a0_proc_0
     + pi_d_a0_a4_proc_2 + pi_d_a0_a4_proc_1 + pi_d_a0_a4_proc_0
     - pi_d_a4_a0_proc_2 - pi_d_a4_a0_proc_1 - pi_d_a4_a0_proc_0
     + pi_d_a0_a5_proc_1 - pi_d_a5_a0_proc_1 + pi_d_a0_a6_proc_2
     + pi_d_a0_a6_proc_1 + pi_d_a0_a6_proc_0 - pi_d_a6_a0_proc_2
     - pi_d_a6_a0_proc_1 - pi_d_a6_a0_proc_0 + pi_d_a0_a7_proc_2
     + pi_d_a0_a7_proc_1 + pi_d_a0_a7_proc_0 - pi_d_a7_a0_proc_2
     - pi_d_a7_a0_proc_1 - pi_d_a7_a0_proc_0 + pi_d_a0_a8_proc_1
     + pi_d_a0_a8_proc_0 - pi_d_a8_a0_proc_1 - pi_d_a8_a0_proc_0
     + pi_d_a0_a9_proc_2 + pi_d_a0_a9_proc_1 - pi_d_a9_a0_proc_2
     - pi_d_a9_a0_proc_1 >= 0
 c4: 623 pi_p_a0_a5 + 623 pi_p_a0_a6 + 623 pi_p_a0_a9 + 623 pi_d_a0_a1_proc_0
     + 623 pi_d_a0_a2_proc_0 + 623 pi_d_a0_a3_proc_0 + 623 pi_d_a0_a4_proc_0
     + 623 pi_d_a0_a6_proc_0 + 623 pi_d_a0_a7_proc_0 + 623 pi_d_a0_a8_proc_0
     + pi_y1_a0 + pi_y2_a0_proc_0 >= 0
 c5: 831 pi_p_a0_a5 + 831 pi_p_a0_a6 + 831 pi_p_a0_a9 + 831 pi_d_a0_a1_proc_1
     + 831 pi_d_a0_a2_proc_1 + 831 pi_d_a0_a4_proc_1 + 831 pi_d_a0_a5_proc_1
     + 831 pi_d_a0_a6_proc_1 + 831 pi_d_a0_a7_proc_1 + 831 pi_d_a0_a8_proc_1
     + 831 pi_d_a0_a9_proc_1 + pi_y1_a0 + pi_y2_a0_proc_1 >= 0
 c6: 1188 pi_p_a0_a5 + 1188 pi_p_a0_a6 + 1188 pi_p_a0_a9
     + 1188 pi_d_a0_a1_proc_2 + 1188 pi_d_a0_a2_proc_2 + 1188 pi_d_a0_a3_proc_2
     + 1188 pi_d_a0_a4_proc_2 + 1188 pi_d_a0_a6_proc_2 + 1188 pi_d_a0_a7_proc_2
     + 1188 pi_d_a0_a9_proc_2 + pi_y1_a0 + pi_y2_a0_proc_2 >= 0
 c7: pi_p_a1_a0 - pi_p_a2_a1 + pi_p_a1_a3 + pi_p_a1_a6 - pi_d_a0_a1_proc_2
     - pi_d_a0_a1_proc_1 - pi_d_a0_a1_proc_0 + pi_d_a1_a0_proc_2
     + pi_d_a1_a0_proc_1 + pi_d_a1_a0_proc_0 + pi_d_a1_a2_proc_2
     + pi_d_a1_a2_proc_1 + pi_d_a1_a2_proc_0 - pi_d_a2_a1_proc_2
     - pi_d_a2_a1_proc_1 - pi_d_a2_a1_proc_0 + pi_d_a1_a3_proc_2
     + pi_d_a1_a3_proc_0 - pi_d_a3_a1_proc_2 - pi_d_a3_a1_proc_0
     + pi_d_a1_a4_proc_2 + pi_d_a1_a4_proc_1 + pi_d_a1_a4_proc_0
     - pi_d_a4_a1_proc_2 - pi_d_a4_a1_proc_1 - pi_d_a4_a1_proc_0
     + pi_d_a1_a5_proc_1 - pi_d_a5_a1_proc_1 + pi_d_a1_a6_proc_2
     + pi_d_a1_a6_proc_1 + pi_d_a1_a6_proc_0 - pi_d_a6_a1_proc_2
     - pi_d_a6_a1_proc_1 - pi_d_a6_a1_proc_0 + pi_d_a1_a7_proc_2
     + pi_d_a1_a7_proc_1 + pi_d_a1_a7_proc_0 - pi_d_a7_a1_proc_2
     - pi_d_a7_a1_proc_1 - pi_d_a7_a1_proc_0 + pi_d_a1_a8_proc_1
     + pi_d_a1_a8_proc_0 - pi_d_a8_a1_proc_1 - pi_d_a8_a1_proc_0
     + pi_d_a1_a9_proc_2 + pi_d_a1_a9_proc_1 - pi_d_a9_a1_proc_2
     - pi_d_a9_a1_proc_1 >= 0
 c8: 551 pi_p_a1_a0 + 551 pi_p_a1_a3 + 551 pi_p_a1_a6 + 551 pi_d_a1_a0_proc_0
     + 551 pi_d_a1_a2_proc_0 + 551 pi_d_a1_a3_proc_0 + 551 pi_d_a1_a4_proc_0
     + 551 pi_d_a1_a6_proc_0 + 551 pi_d_a1_a7_proc_0 + 551 pi_d_a1_a8_proc_0
     + pi_y1_a1 + pi_y2_a1_proc_0 >= 0
 c9: 1071 pi_p_a1_a0 + 1071 pi_p_a1_a3 + 1071 pi_p_a1_a6
     + 1071 pi_d_a1_a0_proc_1 + 1071 pi_d_a1_a2_proc_1 + 1071 pi_d_a1_a4_proc_1
     + 1071 pi_d_a1_a5_proc_1 + 1071 pi_d_a1_a6_proc_1 + 1071 pi_d_a1_a7_proc_1
     + 1071 pi_d_a1_a8_proc_1 + 1071 pi_d_a1_a9_proc_1 + pi_y1_a1
     + pi_y2_a1_proc_1 >= 0
 c10: 674 pi_p_a1_a0 + 674 pi_p_a1_a3 + 674 pi_p_a1_a6 + 674 pi_d_a1_a0_proc_2
      + 674 pi_d_a1_a2_proc_2 + 674 pi_d_a1_a3_proc_2 + 674 pi_d_a1_a4_proc_2
      + 674 pi_d_a1_a6_proc_2 + 674 pi_d_a1_a7_proc_2 + 674 pi_d_a1_a9_proc_2
      + pi_y1_a1 + pi_y2_a1_proc_2 >= 0
 c11: pi_p_a2_a1 - pi_p_a6_a2 - pi_p_a9_a2 - pi_d_a0_a2_proc_2
      - pi_d_a0_a2_proc_1 - pi_d_a0_a2_proc_0 + pi_d_a2_a0_proc_2
      + pi_d_a2_a0_proc_1 + pi_d_a2_a0_proc_0 - pi_d_a1_a2_proc_2
      - pi_d_a1_a2_proc_1 - pi_d_a1_a2_proc_0 + pi_d_a2_a1_proc_2
      + pi_d_a2_a1_proc_1 + pi_d_a2_a1_proc_0 + pi_d_a2_a3_proc_2
      + pi_d_a2_a3_proc_0 - pi_d_a3_a2_proc_2 - pi_d_a3_a2_proc_0
      + pi_d_a2_a4_proc_2 + pi_d_a2_a4_proc_1 + pi_d_a2_a4_proc_0
      - pi_d_a4_a2_proc_2 - pi_d_a4_a2_proc_1 - pi_d_a4_a2_proc_0
      + pi_d_a2_a5_proc_1 - pi_d_a5_a2_proc_1 + pi_d_a2_a6_proc_2
      + pi_d_a2_a6_proc_1 + pi_d_a2_a6_proc_0 - pi_d_a6_a2_proc_2
      - pi_d_a6_a2_proc_1 - pi_d_a6_a2_proc_0 + pi_d_a2_a7_proc_2
      + pi_d_a2_a7_proc_1 + pi_d_a2_a7_proc_0 - pi_d_a7_a2_proc_2
      - pi_d_a7_a2_proc_1 - pi_d_a7_a2_proc_0 + pi_d_a2_a8_proc_1
      + pi_d_a2_a8_proc_0 - pi_d_a8_a2_proc_1 - pi_d_a8_a2_proc_0
      + pi_d_a2_a9_proc_2 + pi_d_a2_a9_proc_1 - pi_d_a9_a2_proc_2
      - pi_d_a9_a2_proc_1 >= 0
 c12: 1014 pi_p_a2_a1 + 1014 pi_d_a2_a0_proc_0 + 1014 pi_d_a2_a1_proc_0
      + 1014 pi_d_a2_a3_proc_0 + 1014 pi_d_a2_a4_proc_0 + 1014 pi_d_a2_a6_proc_0
      + 1014 pi_d_a2_a7_proc_0 + 1014 pi_d_a2_a8_proc_0 + pi_y1_a2
      + pi_y2_a2_proc_0 >= 0
 c13: 1219 pi_p_a2_a1 + 1219 pi_d_a2_a0_proc_1 + 1219 pi_d_a2_a1_proc_1
      + 1219 pi_d_a2_a4_proc_1 + 1219 pi_d_a2_a5_proc_1 + 1219 pi_d_a2_a6_proc_1
      + 1219 pi_d_a2_a7_proc_1 + 1219 pi_d_a2_a8_proc_1 + 1219 pi_d_a2_a9_proc_1
      + pi_y1_a2 + pi_y2_a2_proc_1 >= 0
 c14: 1001 pi_p_a2_a1 + 1001 pi_d_a2_a0_proc_2 + 1001 pi_d_a2_a1_proc_2
      + 1001 pi_d_a2_a3_proc_2 + 1001 pi_d_a2_a4_proc_2 + 1001 pi_d_a2_a6_proc_2
      + 1001 pi_d_a2_a7_proc_2 + 1001 pi_d_a2_a9_proc_2 + pi_y1_a2
      + pi_y2_a2_proc_2 >= 0
 c15: - pi_p_a1_a3 + pi_p_a3_a4 + pi_p_a3_a7 + pi_p_a3_a9 - pi_d_a0_a3_proc_2
      - pi_d_a0_a3_proc_0 + pi_d_a3_a0_proc_2 + pi_d_a3_a0_proc_0
      - pi_d_a1_a3_proc_2 - pi_d_a1_a3_proc_0 + pi_d_a3_a1_proc_2
      + pi_d_a3_a1_proc_0 - pi_d_a2_a3_proc_2 - pi_d_a2_a3_proc_0
      + pi_d_a3_a2_proc_2 + pi_d_a3_a2_proc_0 + pi_d_a3_a4_proc_2
      + pi_d_a3_a4_proc_0 - pi_d_a4_a3_proc_2 - pi_d_a4_a3_proc_0
      + pi_d_a3_a6_proc_2 + pi_d_a3_a6_proc_0 - pi_d_a6_a3_proc_2
      - pi_d_a6_a3_proc_0 + pi_d_a3_a7_proc_2 + pi_d_a3_a7_proc_0
      - pi_d_a7_a3_proc_2 - pi_d_a7_a3_proc_0 + pi_d_a3_a8_proc_0
      - pi_d_a8_a3_proc_0 + pi_d_a3_a9_proc_2 - pi_d_a9_a3_proc_2 >= 0
 c16: 728 pi_p_a3_a4 + 728 pi_p_a3_a7 + 728 pi_p_a3_a9 + 728 pi_d_a3_a0_proc_0
      + 728 pi_d_a3_a1_proc_0 + 728 pi_d_a3_a2_proc_0 + 728 pi_d_a3_a4_proc_0
      + 728 pi_d_a3_a6_proc_0 + 728 pi_d_a3_a7_proc_0 + 728 pi_d_a3_a8_proc_0
      + pi_y1_a3 + pi_y2_a3_proc_0 >= 0
 c17: 605 pi_p_a3_a4 + 605 pi_p_a3_a7 + 605 pi_p_a3_a9 + 605 pi_d_a3_a0_proc_2
      + 605 pi_d_a3_a1_proc_2 + 605 pi_d_a3_a2_proc_2 + 605 pi_d_a3_a4_proc_2
      + 605 pi_d_a3_a6_proc_2 + 605 pi_d_a3_a7_proc_2 + 605 pi_d_a3_a9_proc_2
      + pi_y1_a3 + pi_y2_a3_proc_2 >= 0
 c18: - pi_p_a3_a4 - pi_p_a8_a4 + pi_p_a4_a5 - pi_d_a0_a4_proc_2
      - pi_d_a0_a4_proc_1 - pi_d_a0_a4_proc_0 + pi_d_a4_a0_proc_2
      + pi_d_a4_a0_proc_1 + pi_d_a4_a0_proc_0 - pi_d_a1_a4_proc_2
      - pi_d_a1_a4_proc_1 - pi_d_a1_a4_proc_0 + pi_d_a4_a1_proc_2
      + pi_d_a4_a1_proc_1 + pi_d_a4_a1_proc_0 - pi_d_a2_a4_proc_2
      - pi_d_a2_a4_proc_1 - pi_d_a2_a4_proc_0 + pi_d_a4_a2_proc_2
      + pi_d_a4_a2_proc_1 + pi_d_a4_a2_proc_0 - pi_d_a3_a4_proc_2
      - pi_d_a3_a4_proc_0 + pi_d_a4_a3_proc_2 + pi_d_a4_a3_proc_0
      + pi_d_a4_a5_proc_1 - pi_d_a5_a4_proc_1 + pi_d_a4_a6_proc_2
      + pi_d_a4_a6_proc_1 + pi_d_a4_a6_proc_0 - pi_d_a6_a4_proc_2
      - pi_d_a6_a4_proc_1 - pi_d_a6_a4_proc_0 + pi_d_a4_a7_proc_2
      + pi_d_a4_a7_proc_1 + pi_d_a4_a7_proc_0 - pi_d_a7_a4_proc_2
      - pi_d_a7_a4_proc_1 - pi_d_a7_a4_proc_0 + pi_d_a4_a8_proc_1
      + pi_d_a4_a8_proc_0 - pi_d_a8_a4_proc_1 - pi_d_a8_a4_proc_0
      + pi_d_a4_a9_proc_2 + pi_d_a4_a9_proc_1 - pi_d_a9_a4_proc_2
      - pi_d_a9_a4_proc_1 >= 0
 c19: 1134 pi_p_a4_a4 + 1134 pi_p_a4_a5 + 1134 pi_d_a4_a0_proc_0
      + 1134 pi_d_a4_a1_proc_0 + 1134 pi_d_a4_a2_proc_0 + 1134 pi_d_a4_a3_proc_0
      + 1134 pi_d_a4_a6_proc_0 + 1134 pi_d_a4_a7_proc_0 + 1134 pi_d_a4_a8_proc_0
      + pi_y1_a4 + pi_y2_a4_proc_0 >= 0
 c20: 352 pi_p_a4_a4 + 352 pi_p_a4_a5 + 352 pi_d_a4_a0_proc_1
      + 352 pi_d_a4_a1_proc_1 + 352 pi_d_a4_a2_proc_1 + 352 pi_d_a4_a5_proc_1
      + 352 pi_d_a4_a6_proc_1 + 352 pi_d_a4_a7_proc_1 + 352 pi_d_a4_a8_proc_1
      + 352 pi_d_a4_a9_proc_1 + pi_y1_a4 + pi_y2_a4_proc_1 >= 0
 c21: 1233 pi_p_a4_a4 + 1233 pi_p_a4_a5 + 1233 pi_d_a4_a0_proc_2
      + 1233 pi_d_a4_a1_proc_2 + 1233 pi_d_a4_a2_proc_2 + 1233 pi_d_a4_a3_proc_2
      + 1233 pi_d_a4_a6_proc_2 + 1233 pi_d_a4_a7_proc_2 + 1233 pi_d_a4_a9_proc_2
      + pi_y1_a4 + pi_y2_a4_proc_2 >= 0
 c22: - pi_p_a0_a5 + pi_p_a5_a8 - pi_p_a4_a5 - pi_d_a0_a5_proc_1
      + pi_d_a5_a0_proc_1 - pi_d_a1_a5_proc_1 + pi_d_a5_a1_proc_1
      - pi_d_a2_a5_proc_1 + pi_d_a5_a2_proc_1 - pi_d_a4_a5_proc_1
      + pi_d_a5_a4_proc_1 + pi_d_a5_a6_proc_1 - pi_d_a6_a5_proc_1
      + pi_d_a5_a7_proc_1 - pi_d_a7_a5_proc_1 + pi_d_a5_a8_proc_1
      - pi_d_a8_a5_proc_1 + pi_d_a5_a9_proc_1 - pi_d_a9_a5_proc_1 >= 0
 c23: 715 pi_p_a5_a8 + 715 pi_d_a5_a0_proc_1 + 715 pi_d_a5_a1_proc_1
      + 715 pi_d_a5_a2_proc_1 + 715 pi_d_a5_a4_proc_1 + 715 pi_d_a5_a6_proc_1
      + 715 pi_d_a5_a7_proc_1 + 715 pi_d_a5_a8_proc_1 + 715 pi_d_a5_a9_proc_1
      + pi_y1_a5 + pi_y2_a5_proc_1 >= 0
 c24: pi_p_a6_a2 - pi_p_a1_a6 - pi_p_a0_a6 - pi_d_a0_a6_proc_2
      - pi_d_a0_a6_proc_1 - pi_d_a0_a6_proc_0 + pi_d_a6_a0_proc_2
      + pi_d_a6_a0_proc_1 + pi_d_a6_a0_proc_0 - pi_d_a1_a6_proc_2
      - pi_d_a1_a6_proc_1 - pi_d_a1_a6_proc_0 + pi_d_a6_a1_proc_2
      + pi_d_a6_a1_proc_1 + pi_d_a6_a1_proc_0 - pi_d_a2_a6_proc_2
      - pi_d_a2_a6_proc_1 - pi_d_a2_a6_proc_0 + pi_d_a6_a2_proc_2
      + pi_d_a6_a2_proc_1 + pi_d_a6_a2_proc_0 - pi_d_a3_a6_proc_2
      - pi_d_a3_a6_proc_0 + pi_d_a6_a3_proc_2 + pi_d_a6_a3_proc_0
      - pi_d_a4_a6_proc_2 - pi_d_a4_a6_proc_1 - pi_d_a4_a6_proc_0
      + pi_d_a6_a4_proc_2 + pi_d_a6_a4_proc_1 + pi_d_a6_a4_proc_0
      - pi_d_a5_a6_proc_1 + pi_d_a6_a5_proc_1 + pi_d_a6_a7_proc_2
      + pi_d_a6_a7_proc_1 + pi_d_a6_a7_proc_0 - pi_d_a7_a6_proc_2
      - pi_d_a7_a6_proc_1 - pi_d_a7_a6_proc_0 + pi_d_a6_a8_proc_1
      + pi_d_a6_a8_proc_0 - pi_d_a8_a6_proc_1 - pi_d_a8_a6_proc_0
      + pi_d_a6_a9_proc_2 + pi_d_a6_a9_proc_1 - pi_d_a9_a6_proc_2
      - pi_d_a9_a6_proc_1 >= 0
 c25: 872 pi_p_a6_a2 + 872 pi_d_a6_a0_proc_0 + 872 pi_d_a6_a1_proc_0
      + 872 pi_d_a6_a2_proc_0 + 872 pi_d_a6_a3_proc_0 + 872 pi_d_a6_a4_proc_0
      + 872 pi_d_a6_a7_proc_0 + 872 pi_d_a6_a8_proc_0 + pi_y1_a6
      + pi_y2_a6_proc_0 >= 0
 c26: 934 pi_p_a6_a2 + 934 pi_d_a6_a0_proc_1 + 934 pi_d_a6_a1_proc_1
      + 934 pi_d_a6_a2_proc_1 + 934 pi_d_a6_a4_proc_1 + 934 pi_d_a6_a5_proc_1
      + 934 pi_d_a6_a7_proc_1 + 934 pi_d_a6_a8_proc_1 + 934 pi_d_a6_a9_proc_1
      + pi_y1_a6 + pi_y2_a6_proc_1 >= 0
 c27: 1188 pi_p_a6_a2 + 1188 pi_d_a6_a0_proc_2 + 1188 pi_d_a6_a1_proc_2
      + 1188 pi_d_a6_a2_proc_2 + 1188 pi_d_a6_a3_proc_2 + 1188 pi_d_a6_a4_proc_2
      + 1188 pi_d_a6_a7_proc_2 + 1188 pi_d_a6_a9_proc_2 + pi_y1_a6
      + pi_y2_a6_proc_2 >= 0
 c28: - pi_p_a3_a7 + pi_p_a7_a9 - pi_d_a0_a7_proc_2 - pi_d_a0_a7_proc_1
      - pi_d_a0_a7_proc_0 + pi_d_a7_a0_proc_2 + pi_d_a7_a0_proc_1
      + pi_d_a7_a0_proc_0 - pi_d_a1_a7_proc_2 - pi_d_a1_a7_proc_1
      - pi_d_a1_a7_proc_0 + pi_d_a7_a1_proc_2 + pi_d_a7_a1_proc_1
      + pi_d_a7_a1_proc_0 - pi_d_a2_a7_proc_2 - pi_d_a2_a7_proc_1
      - pi_d_a2_a7_proc_0 + pi_d_a7_a2_proc_2 + pi_d_a7_a2_proc_1
      + pi_d_a7_a2_proc_0 - pi_d_a3_a7_proc_2 - pi_d_a3_a7_proc_0
      + pi_d_a7_a3_proc_2 + pi_d_a7_a3_proc_0 - pi_d_a4_a7_proc_2
      - pi_d_a4_a7_proc_1 - pi_d_a4_a7_proc_0 + pi_d_a7_a4_proc_2
      + pi_d_a7_a4_proc_1 + pi_d_a7_a4_proc_0 - pi_d_a5_a7_proc_1
      + pi_d_a7_a5_proc_1 - pi_d_a6_a7_proc_2 - pi_d_a6_a7_proc_1
      - pi_d_a6_a7_proc_0 + pi_d_a7_a6_proc_2 + pi_d_a7_a6_proc_1
      + pi_d_a7_a6_proc_0 + pi_d_a7_a8_proc_1 + pi_d_a7_a8_proc_0
      - pi_d_a8_a7_proc_1 - pi_d_a8_a7_proc_0 + pi_d_a7_a9_proc_2
      + pi_d_a7_a9_proc_1 - pi_d_a9_a7_proc_2 - pi_d_a9_a7_proc_1 >= 0
 c29: 1026 pi_p_a7_a9 + 1026 pi_d_a7_a0_proc_0 + 1026 pi_d_a7_a1_proc_0
      + 1026 pi_d_a7_a2_proc_0 + 1026 pi_d_a7_a3_proc_0 + 1026 pi_d_a7_a4_proc_0
      + 1026 pi_d_a7_a6_proc_0 + 1026 pi_d_a7_a8_proc_0 + pi_y1_a7
      + pi_y2_a7_proc_0 >= 0
 c30: 794 pi_p_a7_a9 + 794 pi_d_a7_a0_proc_1 + 794 pi_d_a7_a1_proc_1
      + 794 pi_d_a7_a2_proc_1 + 794 pi_d_a7_a4_proc_1 + 794 pi_d_a7_a5_proc_1
      + 794 pi_d_a7_a6_proc_1 + 794 pi_d_a7_a8_proc_1 + 794 pi_d_a7_a9_proc_1
      + pi_y1_a7 + pi_y2_a7_proc_1 >= 0
 c31: 745 pi_p_a7_a9 + 745 pi_d_a7_a0_proc_2 + 745 pi_d_a7_a1_proc_2
      + 745 pi_d_a7_a2_proc_2 + 745 pi_d_a7_a3_proc_2 + 745 pi_d_a7_a4_proc_2
      + 745 pi_d_a7_a6_proc_2 + 745 pi_d_a7_a9_proc_2 + pi_y1_a7
      + pi_y2_a7_proc_2 >= 0
 c32: - pi_p_a5_a8 + pi_p_a8_a4 - pi_d_a0_a8_proc_1 - pi_d_a0_a8_proc_0
      + pi_d_a8_a0_proc_1 + pi_d_a8_a0_proc_0 - pi_d_a1_a8_proc_1
      - pi_d_a1_a8_proc_0 + pi_d_a8_a1_proc_1 + pi_d_a8_a1_proc_0
      - pi_d_a2_a8_proc_1 - pi_d_a2_a8_proc_0 + pi_d_a8_a2_proc_1
      + pi_d_a8_a2_proc_0 - pi_d_a3_a8_proc_0 + pi_d_a8_a3_proc_0
      - pi_d_a4_a8_proc_1 - pi_d_a4_a8_proc_0 + pi_d_a8_a4_proc_1
      + pi_d_a8_a4_proc_0 - pi_d_a5_a8_proc_1 + pi_d_a8_a5_proc_1
      - pi_d_a6_a8_proc_1 - pi_d_a6_a8_proc_0 + pi_d_a8_a6_proc_1
      + pi_d_a8_a6_proc_0 - pi_d_a7_a8_proc_1 - pi_d_a7_a8_proc_0
      + pi_d_a8_a7_proc_1 + pi_d_a8_a7_proc_0 + pi_d_a8_a9_proc_1
      - pi_d_a9_a8_proc_1 >= 0
 c33: 1280 pi_p_a8_a4 + 1280 pi_d_a8_a0_proc_0 + 1280 pi_d_a8_a1_proc_0
      + 1280 pi_d_a8_a2_proc_0 + 1280 pi_d_a8_a3_proc_0 + 1280 pi_d_a8_a4_proc_0
      + 1280 pi_d_a8_a6_proc_0 + 1280 pi_d_a8_a7_proc_0 + pi_y1_a8
      + pi_y2_a8_proc_0 >= 0
 c34: 1031 pi_p_a8_a4 + 1031 pi_d_a8_a0_proc_1 + 1031 pi_d_a8_a1_proc_1
      + 1031 pi_d_a8_a2_proc_1 + 1031 pi_d_a8_a4_proc_1 + 1031 pi_d_a8_a5_proc_1
      + 1031 pi_d_a8_a6_proc_1 + 1031 pi_d_a8_a7_proc_1 + 1031 pi_d_a8_a9_proc_1
      + pi_y1_a8 + pi_y2_a8_proc_1 >= 0
 c35: pi_p_a9_a2 - pi_p_a7_a9 - pi_p_a3_a9 - pi_p_a0_a9 - pi_d_a0_a9_proc_2
      - pi_d_a0_a9_proc_1 + pi_d_a9_a0_proc_2 + pi_d_a9_a0_proc_1
      - pi_d_a1_a9_proc_2 - pi_d_a1_a9_proc_1 + pi_d_a9_a1_proc_2
      + pi_d_a9_a1_proc_1 - pi_d_a2_a9_proc_2 - pi_d_a2_a9_proc_1
      + pi_d_a9_a2_proc_2 + pi_d_a9_a2_proc_1 - pi_d_a3_a9_proc_2
      + pi_d_a9_a3_proc_2 - pi_d_a4_a9_proc_2 - pi_d_a4_a9_proc_1
      + pi_d_a9_a4_proc_2 + pi_d_a9_a4_proc_1 - pi_d_a5_a9_proc_1
      + pi_d_a9_a5_proc_1 - pi_d_a6_a9_proc_2 - pi_d_a6_a9_proc_1
      + pi_d_a9_a6_proc_2 + pi_d_a9_a6_proc_1 - pi_d_a7_a9_proc_2
      - pi_d_a7_a9_proc_1 + pi_d_a9_a7_proc_2 + pi_d_a9_a7_proc_1
      - pi_d_a8_a9_proc_1 + pi_d_a9_a8_proc_1 >= 0
 c36: 1055 pi_p_a9_a2 + 1055 pi_d_a9_a0_proc_1 + 1055 pi_d_a9_a1_proc_1
      + 1055 pi_d_a9_a2_proc_1 + 1055 pi_d_a9_a4_proc_1 + 1055 pi_d_a9_a5_proc_1
      + 1055 pi_d_a9_a6_proc_1 + 1055 pi_d_a9_a7_proc_1 + 1055 pi_d_a9_a8_proc_1
      + pi_y1_a9 + pi_y2_a9_proc_1 >= 0
 c37: 1021 pi_p_a9_a2 + 1021 pi_d_a9_a0_proc_2 + 1021 pi_d_a9_a1_proc_2
      + 1021 pi_d_a9_a2_proc_2 + 1021 pi_d_a9_a3_proc_2 + 1021 pi_d_a9_a4_proc_2
      + 1021 pi_d_a9_a6_proc_2 + 1021 pi_d_a9_a7_proc_2 + pi_y1_a9
      + pi_y2_a9_proc_2 >= 0

Bounds
       pi_y1_a0 Free
       pi_y1_a1 Free
       pi_y1_a2 Free
       pi_y1_a3 Free
       pi_y1_a4 Free
       pi_y1_a5 Free
       pi_y1_a6 Free
       pi_y1_a7 Free
       pi_y1_a8 Free
       pi_y1_a9 Free
End
