benchmark/results/graph__10-1000-0.10-03_1/graph__10-1000-0.10-03_1_Quinton_Benders_aux.txt
solution for: Quinton Benders_auxiliary_sub
objective: 0.0154474
status: OPTIMAL_SOLUTION(2)
pi_p_a2_a1=0.000
pi_p_a1_a3=0.000
pi_p_a3_a7=0.000
pi_p_a9_a2=0.000
pi_p_a7_a9=0.000
pi_y1_a1=-0.167
pi_y1_a2=-0.247
pi_y1_a3=-0.150
pi_y1_a7=-0.184
pi_y1_a9=-0.252
pi_y2_a1_proc_0=0.030
